
Gurobi 11.0.3 (linux64) logging started Thu Apr 16 10:14:37 2026

Set parameter LogFile to value "tree/results/ceva/ceva_depth-4_run-3/Full MIP/LogFile_FullModel.txt"
Gurobi Optimizer version 11.0.3 build v11.0.3rc0 (linux64 - "CentOS Linux 7 (Core)")

CPU model: Intel(R) Xeon(R) Platinum 8260 CPU @ 2.40GHz, instruction set [SSE2|AVX|AVX2|AVX512]
Thread count: 96 physical cores, 192 logical processors, using up to 32 threads

Optimize a model with 270645 rows, 166691 columns and 4330237 nonzeros
Model fingerprint: 0xbf5d99d5
Model has 20736 general constraints
Variable types: 104194 continuous, 62497 integer (62497 binary)
Coefficient statistics:
  Matrix range     [8e-04, 1e+04]
  Objective range  [8e-04, 1e+04]
  Bounds range     [1e+00, 1e+03]
  RHS range        [1e-04, 1e+03]

User MIP start produced solution with objective -377199 (1.51s)
Loaded user MIP start with objective -377199
Processed MIP start in 1.76 seconds (0.35 work units)

Presolve removed 82960 rows and 82944 columns (presolve time = 5s) ...
Presolve added 20720 rows and 82944 columns
Presolve time: 6.62s
Presolved: 291365 rows, 249635 columns, 4496313 nonzeros
Presolved model has 82944 SOS constraint(s)
Variable types: 104194 continuous, 145441 integer (145441 binary)

Deterministic concurrent LP optimizer: primal simplex, dual simplex, and barrier
Showing barrier log only...

Root relaxation presolved: 291365 rows, 249635 columns, 4496313 nonzeros

Root barrier log...

Ordering time: 0.19s

Barrier statistics:
 Dense cols : 240
 AA' NZ     : 4.602e+06
 Factor NZ  : 1.830e+07 (roughly 400 MB of memory)
 Factor Ops : 1.241e+09 (less than 1 second per iteration)
 Threads    : 30

                  Objective                Residual
Iter       Primal          Dual         Primal    Dual     Compl     Time
   0  -2.36714027e+05  2.00461718e+09  1.50e+04 1.97e-14  7.72e+05    16s
   1  -1.99979478e+05  3.38673641e+09  6.35e+03 2.54e+01  2.91e+05    17s
   2  -1.29596325e+05  3.46196819e+09  7.89e+02 5.25e+00  4.05e+04    18s
   3  -1.35823228e+04  2.55398539e+09  7.72e+01 1.58e+00  7.88e+03    20s
   4  -1.43775815e+03  4.70429986e+08  6.27e+00 1.56e-01  1.01e+03    21s
   5  -1.42879138e+02  5.51743300e+07  3.20e-01 1.56e-02  1.09e+02    22s
   6  -1.33838307e+01  5.79690797e+06  3.25e-02 1.56e-03  1.11e+01    23s
   7  -4.34164653e-01  5.92491774e+05  3.73e-03 1.59e-04  1.13e+00    24s
   8   8.60950773e-01  6.98685641e+04  8.71e-04 1.87e-05  1.33e-01    25s
   9   9.53514288e-01  7.09604777e+03  8.63e-05 1.89e-06  1.35e-02    26s
  10   9.95351756e-01  7.11341185e+02  8.66e-06 1.89e-07  1.35e-03    27s
  11   9.99535045e-01  7.26812986e+01  8.59e-07 1.89e-08  1.36e-04    29s
  12   9.99953504e-01  8.16814280e+00  8.59e-08 1.89e-09  1.36e-05    29s
  13   9.99995350e-01  1.72334490e+00  8.51e-09 1.89e-10  1.37e-06    30s
  14   9.99999535e-01  1.07233449e+00  8.51e-10 1.89e-11  1.37e-07    32s
  15   9.99999953e-01  1.00729935e+00  8.47e-11 1.89e-12  1.38e-08    33s
  16   9.99999995e-01  1.00072993e+00  8.73e-12 1.89e-13  1.38e-09    34s
  17   1.00000000e+00  1.00007299e+00  1.08e-12 2.84e-14  1.38e-10    35s
  18   1.00000000e+00  1.00000730e+00  4.62e-13 1.89e-15  1.38e-11    38s
  19   1.00000000e+00  1.00000073e+00  4.55e-13 1.89e-16  1.38e-12    39s
  20   1.00000000e+00  1.00000007e+00  4.62e-13 1.89e-17  1.38e-13    41s
  21   1.00000000e+00  1.00000001e+00  4.26e-13 3.47e-18  1.38e-14    42s

Barrier solved model in 21 iterations and 41.68 seconds (23.39 work units)
Optimal objective 1.00000000e+00


Root crossover log...

   11692 DPushes remaining with DInf 0.0000000e+00                42s
       0 DPushes remaining with DInf 0.0000000e+00                42s

   99344 PPushes remaining with PInf 0.0000000e+00                42s
      88 PPushes remaining with PInf 0.0000000e+00                46s
       0 PPushes remaining with PInf 0.0000000e+00                48s

  Push phase complete: Pinf 0.0000000e+00, Dinf 0.0000000e+00     48s


Root simplex log...

Iteration    Objective       Primal Inf.    Dual Inf.      Time
   99348    1.0000000e+00   0.000000e+00   0.000000e+00     48s
   99348    1.0000000e+00   0.000000e+00   0.000000e+00     49s
Concurrent spin time: 0.01s

Solved with barrier

Root relaxation: objective 1.000000e+00, 99348 iterations, 38.37 seconds (19.47 work units)
Total elapsed time = 160.38s (DegenMoves)

    Nodes    |    Current Node    |     Objective Bounds      |     Work
 Expl Unexpl |  Obj  Depth IntInf | Incumbent    BestBd   Gap | It/Node Time

     0     0    1.00000    0 18213 -377199.19    1.00000   100%     -  162s
     0     2    1.00000    0 18213 -377199.19    1.00000   100%     - 1402s
H    1     4                    -377199.1874    1.00000   100%  2316 2545s
     7    16    1.00000    3 14839 -377199.19    1.00000   100%  2148 2551s
    15    32    1.00000    4 14838 -377199.19    1.00000   100%  1003 2653s
H   31    64                       0.7916667    1.00000  26.3%   653 2695s
    95   128    1.00000    7 14835    0.79167    1.00000  26.3%   217 3601s

Explored 127 nodes (122730 simplex iterations) in 3603.24 seconds (5311.52 work units)
Thread count was 32 (of 192 available processors)

Solution count 3: 0.791667 -377199 -377199 

Time limit reached
Best objective 7.916666666667e-01, best bound 1.000000000000e+00, gap 26.3158%

User-callback calls 171794, time in user-callback 2.23 sec
